(declare-const a Real)
(declare-const b Real)
(declare-const c Real)
(assert (= (+ a b c) 3))
(assert (> a 0))
(assert (> b 0))
(assert (> c 0))
(assert (not (<= (+ (* a (+ (pow c 2) (* (pow b 4) (pow c 2)))) (* -1 (pow a 2) (pow b 3)) (* -1 (pow a 2) (pow c 3)) (* -1 (pow a 3) (pow b 2)) (* -1 (pow a 3) (pow c 2)) (* -1 (pow b 2) (pow c 3)) (* -1 (pow b 3) (pow c 2)) (* 2 b (pow a 2) (pow c 2)) (* 2 c (pow a 2) (pow b 2))) 0)))
(check-sat)
(get-model)
(exit)